AES/1_4_4/ssaes_r1-20_c4_rw1_e4_f0_k1-20_aes_min_box_aes_mc_bidirectional/ExperimentMinisat_r12_k17cnf_2011-11-18-084128/Result
WARNING: for repeatability, setting FPU to use double precision
============================[ Problem Statistics ]=============================
|                                                                             |
|  Number of variables:           912                                         |
|  Number of clauses:            3688                                         |
|  Parse time:                   0.00 s                                       |
|  Eliminated clauses:           0.01 Mb                                      |
|  Simplification time:          0.00 s                                       |
|                                                                             |
=============================[ Search Statistics ]==============================
| Conflicts  |          ORIGINAL         |          LEARNT          | Progress |
|            |    Vars  Clauses Literals |    Limit  Clauses Lit/Cl |          |
================================================================================
|        100 |     624     2824     9400 |     1035      100     10 |  8.772 % |
|        250 |     624     2824     9400 |     1139      250     12 |  8.772 % |
|        475 |     624     2824     9400 |     1252      475     13 |  8.772 % |
|        812 |     624     2824     9400 |     1378      812     15 |  8.772 % |
|       1318 |     624     2824     9400 |     1516     1318     15 |  8.772 % |
|       2077 |     624     2824     9400 |     1667     1275     15 |  8.772 % |
|       3216 |     624     2824     9400 |     1834     1511     14 |  8.772 % |
|       4924 |     624     2824     9400 |     2017     1281     11 |  8.772 % |
|       7486 |     624     2824     9400 |     2219     1716     12 |  8.772 % |
|      11330 |     624     2824     9400 |     2441     2065     12 |  8.772 % |
|      17096 |     624     2824     9400 |     2685     1452      9 |  8.772 % |
|      25745 |     624     2824     9400 |     2954     1707     10 |  8.772 % |
|      38719 |     624     2824     9400 |     3249     2473     11 |  8.772 % |
|      58180 |     624     2824     9400 |     3574     1809     10 |  8.772 % |
|      87372 |     624     2824     9400 |     3932     3397     12 |  8.772 % |
===============================================================================
restarts              : 347
conflicts             : 127399         (18030 /sec)
decisions             : 140690         (0.00 % random) (19911 /sec)
propagations          : 35540864       (5029895 /sec)
conflict literals     : 2238858        (51.92 % deleted)
Memory used           : 8.00 MB
CPU time              : 7.06593 s

SATISFIABLE
